data;

set C := 1 2 3 4;

param: t := 
	1 4 2 
	2 3 5
	3 2 5
	4 1 2
;

param: d := 
	1 2 1
	1 3 5
	1 4 6
	2 1 1
	2 3 4
	2 4 5
	3 1 5
	3 2 4
	3 4 1
	4 1 6
	4 2 5
	4 3 1
;

param p := 2;

param a := 1;

param b := 2;